152
0 50 82 62 52 33 65 73 130 81 
57 83 32 30 35 140 13 151 17 150 
80 112 4 67 49 48 125 84 77 87 
29 60 22 127 139 110 145 131 86 69 
149 105 21 26 6 1 61 3 51 11 
143 128 99 135 74 97 85 15 72 25 
63 41 76 66 19 118 38 146 42 117 
64 148 94 116 44 45 20 37 98 2 
79 129 124 14 103 75 108 23 100 92 
111 91 31 5 123 70 47 119 120 93 
58 27 10 18 136 102 115 9 88 55 
43 7 68 126 95 89 40 141 16 39 
24 54 101 90 113 121 133 59 138 104 
144 122 12 109 132 8 114 134 71 34 
96 78 28 36 53 137 56 106 147 46 
142 107 
